
Log started (V11.0.0) Wed May 14 13:22:57 2008

Tried aggregator 1 time.
Reduced MIP has 130 rows, 3001 columns, and 6030 nonzeros.
Presolve time =    0.02 sec.
Clique table members: 100.
MIP emphasis: balance optimality and feasibility.
MIP search method: dynamic search.
Parallel mode: none, using 1 thread.
Root relaxation solution time =    0.08 sec.

        Nodes                                         Cuts/
   Node  Left     Objective  IInf  Best Integer     Best Node    ItCnt     Gap

*     0+    0                         6255.0000       87.7123      346   98.60%
*     0+    0                          116.0000       87.7123      346   24.39%
      0     0       88.6511    55      116.0000      Fract: 5      367   23.58%
*     0+    0                          113.0000       88.6511      367   21.55%
      0     0       94.0913    53      113.0000      Cuts: 31      575   16.73%
      0     0       94.4236    63      113.0000      Cuts: 18      640   16.44%
*     0+    0                          112.0000       94.4236      640   15.69%
      0     0       94.4302    64      112.0000       Cuts: 7      693   15.69%
*     0+    0                          109.0000       94.4302      693   13.37%
      0     0       94.6462    61      109.0000       Cuts: 5      707   13.17%
      0     0       94.6464    70      109.0000       Cuts: 7      724   13.17%
*     0+    0                          107.0000       94.6464      724   11.55%
      0     0       94.9647    70      107.0000       Cuts: 6      740   11.25%
*     0+    0                          106.0000       94.9647      740   10.41%
      0     0       94.9934    73      106.0000       Cuts: 3      753   10.38%
      0     0       95.3518    73      106.0000       Cuts: 4      791   10.05%
      0     0       95.3538    69      106.0000       Cuts: 4      821   10.04%
*     0+    0                          104.0000       95.3538      821    8.31%
*     0+    0                          103.0000       95.3538      821    7.42%
*     0+    0                          102.0000       95.3538      821    6.52%
      0     2       96.0000    54      102.0000       95.3538      821    6.52%
    100    92       98.8033    36      102.0000       96.0000     2565    5.88%
    200   134      101.0000    23      102.0000       96.0000     3625    5.88%
    300   195       99.0000    23      102.0000       96.0000     5034    5.88%
    400   279      101.0000    21      102.0000       96.0000     6125    5.88%
    500   342      100.0000    29      102.0000      100.0000     8647    1.96%
    600   327      101.0000    21      102.0000      100.0000    10875    1.96%
    700   315      101.0000    25      102.0000      100.0000    12812    1.96%
*   791+   95                          101.0000      100.0000    14266    0.99%
    800    78    infeasible            101.0000      100.0000    14854    0.99%

Clique cuts applied:  1
Cover cuts applied:  29
Implied bound cuts applied:  33
Mixed integer rounding cuts applied:  17
Gomory fractional cuts applied:  1

Solution pool: 11 solutions saved.

MIP - Integer optimal solution:  Objective = 1.0100000000e+002
Solution time =   11.19 sec.  Iterations = 14904  Nodes = 802 (76)


Incumbent solution
Variable Name           Solution Value
Cmax                        101.000000
X_1_17                        1.000000
X_2_24                        1.000000
X_3_15                        1.000000
X_4_27                        1.000000
X_5_19                        1.000000
X_6_24                        1.000000
X_7_24                        1.000000
X_8_26                        1.000000
X_9_11                        1.000000
X_10_1                        1.000000
X_11_29                       1.000000
X_12_19                       1.000000
X_13_24                       1.000000
X_14_24                       1.000000
X_15_29                       1.000000
X_16_3                        1.000000
X_17_16                       1.000000
X_18_14                       1.000000
X_19_18                       1.000000
X_20_18                       1.000000
X_21_24                       1.000000
X_22_24                       1.000000
X_23_4                        1.000000
X_24_3                        1.000000
X_25_19                       1.000000
X_26_4                        1.000000
X_27_4                        1.000000
X_28_24                       1.000000
X_29_17                       1.000000
X_30_19                       1.000000
X_31_19                       1.000000
X_32_8                        1.000000
X_33_24                       1.000000
X_34_24                       1.000000
X_35_19                       1.000000
X_36_29                       1.000000
X_37_19                       1.000000
X_38_19                       1.000000
X_39_24                       1.000000
X_40_19                       1.000000
X_41_16                       1.000000
X_42_8                        1.000000
X_43_19                       1.000000
X_44_13                       1.000000
X_45_20                       1.000000
X_46_19                       1.000000
X_47_3                        1.000000
X_48_10                       1.000000
X_49_16                       1.000000
X_50_4                        1.000000
X_51_19                       1.000000
X_52_22                       1.000000
X_53_23                       1.000000
X_54_19                       1.000000
X_55_7                        1.000000
X_56_24                       1.000000
X_57_19                       1.000000
X_58_17                       1.000000
X_59_2                        1.000000
X_60_17                       1.000000
X_61_2                        1.000000
X_62_23                       1.000000
X_63_5                        1.000000
X_64_4                        1.000000
X_65_24                       1.000000
X_66_30                       1.000000
X_67_19                       1.000000
X_68_9                        1.000000
X_69_19                       1.000000
X_70_5                        1.000000
X_71_12                       1.000000
X_72_24                       1.000000
X_73_19                       1.000000
X_74_19                       1.000000
X_75_17                       1.000000
X_76_19                       1.000000
X_77_24                       1.000000
X_78_23                       1.000000
X_79_16                       1.000000
X_80_19                       1.000000
X_81_17                       1.000000
X_82_16                       1.000000
X_83_17                       1.000000
X_84_19                       1.000000
X_85_19                       1.000000
X_86_19                       1.000000
X_87_17                       1.000000
X_88_18                       1.000000
X_89_6                        1.000000
X_90_9                        1.000000
X_91_24                       1.000000
X_92_19                       1.000000
X_93_25                       1.000000
X_94_21                       1.000000
X_95_3                        1.000000
X_96_24                       1.000000
X_97_8                        1.000000
X_98_19                       1.000000
X_99_18                       1.000000
X_100_28                      1.000000
All other variables in the range 1-3001 are 0.
